NAME : 50_4_06.57891.tour
COMMENT : Cost = 0_57891
COMMENT : Found by LKH [Keld Helsgaun] Thu Sep 14 11:08:25 2017
TYPE : TOUR
DIMENSION : 54
TOUR_SECTION
1
13
4
6
46
5
11
9
42
53
3
41
19
21
20
47
36
23
22
39
28
37
40
51
38
26
27
24
34
44
33
43
52
45
7
2
54
8
10
12
15
48
17
16
14
35
25
50
49
29
31
18
32
30
-1
EOF
